NAME : cutter.39092.tour
COMMENT : Length = 39092
COMMENT : Found by LKH [Keld Helsgaun] Fri Jan  4 10:12:47 2013
TYPE : TOUR
DIMENSION : 150
TOUR_SECTION
1
41
143
142
112
108
115
127
125
97
51
15
139
135
3
30
12
119
68
83
148
50
92
54
26
107
93
14
67
62
48
131
118
134
69
129
130
98
96
138
45
104
88
89
123
59
6
28
120
42
20
37
75
140
121
99
133
117
105
65
87
109
141
29
137
34
31
66
71
49
2
94
52
101
40
19
38
85
36
91
16
144
21
90
55
8
114
44
72
61
79
113
39
80
132
149
53
116
82
27
147
106
4
100
25
76
146
57
136
128
11
78
84
43
150
47
73
58
46
124
102
103
33
56
77
22
60
126
74
110
18
122
7
86
24
17
13
10
64
111
5
63
95
81
70
32
9
35
23
145
-1
EOF
